! BLYP def2-SVP noautostart miniprint pal4 COSMORS(ethanol)
* xyz 0 1
C      -0.129950      0.363127      0.000121
O      -1.165832     -0.213721     -0.000113
O       1.052226     -0.275073      0.000055
H      -0.041885      1.461841      0.000302
H       1.775427      0.361508      0.000238
*
