! BLYP def2-SVP noautostart miniprint pal4 COSMORS(ethanol)
* xyz 0 1
C       2.295822     -0.592013     -0.232042
C       1.043769     -0.037710      0.401391
C       0.563745      1.301405     -0.161259
C      -0.941156      1.216282      0.052720
C      -1.211504     -0.276834     -0.007347
O      -2.252344     -0.832230     -0.168906
O      -0.047139     -0.943647      0.160264
H       3.128272      0.093081     -0.064892
H       2.149332     -0.711624     -1.306003
H       2.549925     -1.560872      0.195594
H       1.168382      0.034334      1.486716
H       0.796130      1.350534     -1.227190
H       1.038019      2.146169      0.333985
H      -1.551839      1.737633     -0.679319
H      -1.234041      1.562274      1.046724
*
