! BLYP def2-SVP noautostart miniprint pal64 COSMORS(ethanol)
* xyz 0 1
C      -1.701231     -0.211935     -2.802440
C      -2.552647      0.580274     -2.042758
C      -2.135607      1.847446     -1.621282
C      -0.878983      2.337762     -1.986150
C      -0.030392      1.548821     -2.758683
C      -0.435112      0.268130     -3.152266
C      -3.028382      2.573688     -0.665422
O      -4.049918      2.102674     -0.242511
O      -2.547900      3.770501     -0.287320
C       0.473504     -0.644574     -3.911969
O       0.228874     -1.796830     -4.158594
H      -1.987792     -1.216850     -3.115632
H      -3.529029      0.216801     -1.718955
H      -0.567502      3.323744     -1.641186
H       0.954452      1.912138     -3.051296
O       1.608094     -0.041953     -4.288570
C       2.601133     -0.846651     -4.912078
C       3.220641     -1.834884     -3.932135
C       2.237259     -0.550525      1.854356
C       2.683391     -1.381214      0.831020
C       2.922819     -0.849670     -0.439235
C       2.765574      0.520131     -0.678334
C       2.329714      1.350582      0.347214
C       2.040498      0.811487      1.603078
C       3.203156     -1.789835     -1.565893
O       3.184742     -2.987128     -1.480598
O       3.413196     -1.132711     -2.714995
C       1.402729      1.724401      2.605076
O       1.236768      2.902719      2.423848
O       0.983978      1.072118      3.690897
C       0.235919      1.820887      4.645432
O       0.323976      3.204258      6.525530
C       1.152675      2.607310      5.563798
H       2.169605     -1.394457     -5.762010
H       3.347754     -0.131598     -5.275893
H       4.182080     -2.203031     -4.320302
H       2.565150     -2.696323     -3.755715
H       1.995599     -0.954431      2.837050
H       2.802810     -2.454733      0.982681
H       2.947627      0.910271     -1.679234
H       2.161093      2.416076      0.184717
H      -0.337868      1.088572      5.225528
H      -0.451271      2.501092      4.124788
H       0.861832      3.749366      7.106817
H       1.704587      3.352524      4.964684
H       1.885814      1.911063      6.011575
O      -1.887523      2.640998      2.010595
C      -2.302812      3.989513      2.100289
C      -3.143848      4.347924      0.873063
H      -2.881217      4.163635      3.018910
H      -1.370672      4.566941      2.127129
H      -3.157844      5.434784      0.726173
H      -4.169113      3.973837      0.979068
C       1.002253     -5.281381     -1.151549
C       0.291322     -4.179993     -1.926959
C      -3.058061     -0.784308      1.823495
C      -2.667454     -1.943726      1.162066
C      -1.491589     -1.955625      0.400330
C      -0.693691     -0.814490      0.314946
C      -1.086588      0.342987      0.974638
C      -2.267991      0.364293      1.719813
C      -1.157409     -3.198426     -0.360792
O      -1.831706     -4.195175     -0.341482
O      -0.044347     -3.070717     -1.092010
C      -2.749085      1.649502      2.313735
O      -3.759028      1.810455      2.936412
H       0.389634     -5.574253     -0.281321
H       1.964076     -4.895898     -0.790483
H      -0.629219     -4.572807     -2.384396
H       0.942387     -3.780634     -2.711109
H      -3.982091     -0.739811      2.401573
H      -3.270781     -2.851613      1.199692
H       0.209699     -0.820024     -0.295345
H      -0.504885      1.256756      0.869064
O       1.272523     -6.368695     -1.999251
H       0.441647     -6.819552     -2.182927
*
