! M062X def2-SVP D3zero Opt noautostart miniprint pal64
%geom
  MaxIter 300
end

* xyz 0 1
C        5.10230882      -1.02179853       1.24742524
C        4.77050882      -0.05029853       2.20812524
C        3.78090882       0.97330147       2.02742524
C        3.04300882       0.94980147       0.78692524
C        3.32240882       0.00490147      -0.19737476
C        4.36050882      -0.95289853       0.01132524
C        3.25990882       1.82410147       3.12302524
O        3.73440882       1.87750147       4.29512524
O        2.02320882       2.22870147       2.84702524
C        4.81080882      -1.88339853      -1.01547476
O        5.73020882      -2.69949853      -0.73967476
H        5.92930882      -1.70229853       1.38652524
H        5.20030882      -0.15799853       3.19302524
H        2.12410882       1.47070147       0.56162524
H        2.69040882       0.00490147      -1.07307476
O        4.09360882      -1.90389853      -2.14507476
C        4.13480882      -3.01599853      -3.02157476
C        2.72890882      -3.25822653      -3.54837476
C       -1.73381118      -2.10179853       0.58572524
C       -1.30786118      -2.50859853      -0.73307476
C        0.09620882      -2.61869853      -0.98747476
C        0.96000882      -2.32939853       0.13672524
C        0.56950882      -1.80179853       1.30742524
C       -0.83370118      -1.72969853       1.56922524
C        0.59000882      -2.99369853      -2.39057476
O       -0.00889118      -2.73359853      -3.39267476
O        1.92090882      -3.18662653      -2.33537476
C       -1.25068118      -0.92539853       2.78012524
O       -0.48566118      -0.12559853       3.35872524
O       -2.62059118      -0.72249853       2.76922524
C       -3.22477118      -0.01109853       3.80242524
O       -3.82397118      -1.93339853       5.11675324
C       -3.14313118      -0.70479853       5.21145324
H        4.98140882      -3.00889853      -3.70807476
H        4.48090882      -3.90822653      -2.49977476
H        2.59020882      -4.25052653      -3.97757476
H        2.41520882      -2.47659853      -4.24027476
H       -2.76035118      -1.91019853       0.86132524
H       -1.86897118      -2.72279853      -1.63067476
H        2.03640882      -2.39479853       0.07822524
H        1.15830882      -1.30279853       2.06282524
H       -4.30732118      -0.02329853       3.67572524
H       -2.88405118       1.02380147       3.83302524
H       -3.35045118      -2.51219853       4.53902524
H       -3.41169118      -0.18919853       6.13345324
H       -2.09001118      -0.89899853       5.41475324
O       -0.48039118       3.17900147       2.07642524
C       -0.03489118       3.24020147       3.40602524
C        1.48810882       3.31780147       3.57862524
H       -0.51609118       4.10110147       3.87032524
H       -0.29889118       2.28380147       3.85732524
H        1.72610882       3.21710147       4.63762524
H        1.82900882       4.29240147       3.22922524
C       -2.96959118       0.60210147      -6.15585476
C       -2.16207118      -0.24219853      -5.12367476
C       -3.45220118       2.74890147      -0.00617476
C       -3.75358118       2.10320147      -1.20977476
C       -2.63928118       1.83690147      -2.11347476
C       -1.30905118       1.95360147      -1.78927476
C       -1.06917118       2.44010147      -0.54857476
C       -2.09599118       2.86630147       0.40712524
C       -2.99385118       0.96640147      -3.28827476
O       -3.94945118       0.22060147      -3.20517476
O       -1.96732118       0.61520147      -4.06347476
C       -1.80363118       3.15700147       1.85982524
O       -2.69811118       3.60540147       2.63892524
H       -4.02076118       0.57150147      -5.86908476
H       -2.83683118       0.05730147      -7.09057476
H       -1.23041118      -0.70049853      -5.45560476
H       -2.67904118      -1.12179853      -4.73997476
H       -4.20058118       2.95820147       0.74382524
H       -4.73815118       1.85880147      -1.58037476
H       -0.54915118       1.79840147      -2.54077476
H       -0.04619118       2.51280147      -0.21007476
O       -2.51222118       1.95790147      -6.27944476
H       -1.56915118       1.91630147      -6.32321476
*
