! M062X def2-SVP D3zero Opt noautostart miniprint pal64
%geom
  MaxIter 300
end

* xyz 0 1
C       -2.09308753      -0.38635603      -3.56599342
C       -3.15742753       0.33764597      -2.96209342
C       -2.97433753       1.61331897      -2.30379342
C       -1.64702753       2.10767397      -2.31449342
C       -0.62075753       1.45829197      -2.94839342
C       -0.80389753       0.19342597      -3.46959342
C       -4.16082753       2.38102397      -1.91029342
O       -5.32790953       2.04076397      -2.23569342
O       -3.90608753       3.58373397      -1.40989342
C        0.26246247      -0.45711603      -4.26629342
O        0.11022247      -1.42558603      -4.99489342
H       -2.32202753      -1.27885603      -4.12939342
H       -4.17747853       0.01071597      -3.10009342
H       -1.35659753       2.98334397      -1.75299342
H        0.38252247       1.85373397      -2.88939342
O        1.35422247       0.24691797      -4.19599342
C        2.53067247      -0.14718403      -5.01739342
C        3.58410247      -0.86912603      -4.11839342
C        2.74578247      -1.12832603       1.79640658
C        3.16395247      -1.55948603       0.50254658
C        3.60479247      -0.63081603      -0.50709342
C        3.30170247       0.77009247      -0.28569342
C        2.87196247       1.20577197       1.02463658
C        2.64817247       0.28487797       2.06545658
C        4.19103247      -1.06527603      -1.77619342
O        4.87619247      -2.06355603      -1.75109342
O        3.75497247      -0.24157303      -2.80779342
C        2.34642247       0.78886237       3.51963658
O        1.86770247       1.88202397       3.75098658
O        2.66204247      -0.08447903       4.43990658
C        2.61777247       0.24076897       5.83993658
O        3.26976247       1.60639897       7.52159658
C        3.57585247       1.45559997       6.18596658
H        2.21438247      -0.87505603      -5.76459342
H        2.92708247       0.73121734      -5.52669342
H        4.59339247      -0.88282603      -4.52979342
H        3.19348247      -1.87459603      -3.96169342
H        2.56141247      -1.86426603       2.56505658
H        3.38861247      -2.60170603       0.33015658
H        3.30894247       1.56648697      -1.01519342
H        2.69893247       2.25360397       1.22096658
H        2.89778247      -0.69033603       6.33264658
H        1.58096247       0.48782897       6.06820658
H        3.74980247       2.25554397       8.01274658
H        3.45932247       2.41635397       5.68445658
H        4.54586247       0.97250697       6.06840658
O       -3.24329753       3.07403397       0.97560658
C       -4.05257753       4.21757397       0.89590658
C       -4.73605553       4.15331397      -0.45039342
H       -4.82477353       4.30052397       1.66073658
H       -3.37574753       5.06976397       0.95751658
H       -5.17422497       5.12946397      -0.65839342
H       -5.58819053       3.48648397      -0.31869342
C       -0.24114753      -4.89611603       1.07191658
C        0.37633247      -4.28686603      -0.11032342
C       -3.71970753      -0.13102703       0.26630658
C       -2.94588753      -1.20471603      -0.36079342
C       -1.55662753      -1.23411603      -0.17409342
C       -0.87788753      -0.27052603       0.58856658
C       -1.58746753       0.78668167       1.17495658
C       -2.97962753       0.81879617       0.97479658
C       -0.80262753      -2.26776603      -0.91339342
O       -1.30435753      -2.88137603      -1.85659342
O       -0.00385753      -2.96851603       0.01806658
C       -3.70606753       1.94147397       1.56563658
O       -4.85791153       1.78765397       1.78771658
H       -1.30353753      -4.78761603       0.85352658
H        0.16085247      -4.47889603       1.99519658
H        0.18022247      -4.83340603      -1.03279342
H        1.45892247      -4.30999603       0.01458658
H       -4.75958353       0.06441197       0.04975658
H       -3.46503753      -1.96786603      -0.92159342
H        0.18866247      -0.42240603       0.66485658
H       -1.21626753       1.52010097       1.87548658
O        0.14253247      -6.24597603       1.23653658
H       -0.47988753      -6.76509603       0.75058658
*
