! M062X def2-TZVP D3zero Opt noautostart miniprint pal4
%geom
  MaxIter 300
end

* xyz 0 1
C      1.000000    1.000000    0.000000
N     -0.442000    1.000000    0.000000
C     -1.212000    1.000000    1.217000
C     -2.632000    0.866000    0.707000
C     -2.611000    1.653000   -0.599000
C     -1.181000    1.509000   -1.066000
O     -0.754000    1.831000   -2.162000
H      1.373000    0.514000    0.905000
H      1.360000    2.031000   -0.055000
H      1.350000    0.454000   -0.881000
H     -1.056000    1.952000    1.736000
H     -0.918000    0.165000    1.859000
H     -3.380000    1.230000    1.418000
H     -2.851000   -0.188000    0.493000
H     -2.825000    2.712000   -0.426000
H     -3.304000    1.237000   -1.333000
*
