! M062X def2-TZVP D3zero Opt noautostart miniprint pal4
%geom
  MaxIter 300
end

* xyz 0 1
C   2.304969   -0.598267   -0.230864
C   1.047968   -0.037120    0.398378
C   0.558907    1.306739   -0.163681
C  -0.948758    1.218192    0.055216
C  -1.221693   -0.282056   -0.010524
O  -2.265605   -0.843078   -0.176413
O  -0.049015   -0.946096    0.165976
H   3.152469    0.082403   -0.053830
H   2.169772   -0.716630   -1.317125
H   2.552570   -1.580578    0.197336
H   1.178426    0.040520    1.493930
H   0.788556    1.359542   -1.240636
H   1.040669    2.163487    0.328240
H  -1.569736    1.752809   -0.675439
H  -1.244126    1.566914    1.059873
*
