! BLYP def2-SVP noautostart miniprint pal64 COSMORS(ethanol)
* xyz 0 1
C       1.269980      1.790106      1.749008
C       2.093604      0.780394      2.244301
C       1.905148      0.306079      3.545823
C       0.889561      0.829283      4.353276
C       0.052962      1.819054      3.854354
C       0.246382      2.299915      2.555141
C       2.723583     -0.804316      4.125739
O       2.673176     -1.143319      5.278404
O       3.496592     -1.414656      3.219246
C      -0.650306      3.400874      2.089395
O      -1.531047      3.890673      2.748276
H       1.419247      2.195012      0.746275
H       2.881833      0.351652      1.625251
H       0.770988      0.436712      5.363953
H      -0.749995      2.245497      4.456826
O      -0.355758      3.808599      0.852771
C      -1.046973      4.946484      0.350734
C      -0.346315      5.327593     -0.935359
C      -1.274184      0.928039     -4.150116
C      -0.941438      2.101060     -3.484680
C       0.186004      2.130023     -2.656379
C       0.994312      0.998399     -2.516624
C       0.647765     -0.181647     -3.165092
C      -0.495428     -0.216556     -3.968000
C       0.553442      3.343675     -1.868698
O       1.596089      3.484913     -1.289588
O      -0.442458      4.248533     -1.856548
C      -0.981856     -1.490041     -4.577075
O      -1.896469     -1.579264     -5.349206
O      -0.294985     -2.551724     -4.130037
C      -0.754921     -3.825573     -4.554789
O       0.034811     -4.789231     -2.468479
C       0.090524     -4.874043     -3.866855
H      -2.105253      4.696020      0.172508
H      -0.998838      5.766521      1.082848
H       0.710158      5.557820     -0.746533
H      -0.845731      6.186233     -1.399872
H      -2.161364      0.864280     -4.780851
H      -1.559481      2.993728     -3.580150
H       1.877719      1.053295     -1.879191
H       1.244863     -1.083910     -3.036069
H      -0.678741     -3.908999     -5.649975
H      -1.822187     -3.925897     -4.294953
H      -0.879303     -4.885006     -2.176257
H       1.144080     -4.729950     -4.144910
H      -0.219240     -5.867800     -4.238129
O       1.913807     -3.478282      3.416296
C       3.156399     -3.691776      4.065325
C       4.159799     -2.600367      3.647860
H       2.933062     -3.636275      5.133926
H       3.561635     -4.679639      3.806474
H       4.742815     -2.915780      2.776705
H       4.829526     -2.374208      4.490036
C      -3.729780      2.472615      0.454636
C      -2.797207      1.897722     -0.593472
C       0.576584     -3.059406      0.061697
C      -0.341565     -2.248715     -0.597364
C      -1.013137     -1.246205      0.111897
C      -0.844298     -1.115512      1.492834
C       0.030823     -1.964841      2.160445
C       0.776535     -2.900143      1.436376
C      -1.891208     -0.306808     -0.648422
O      -2.379852     -0.551218     -1.718661
O      -2.043062      0.852703      0.008033
C       1.905095     -3.632130      2.081551
O       2.759676     -4.232294      1.487755
H      -3.164157      2.667218      1.381581
H      -4.520603      1.736349      0.685475
H      -2.096466      2.675299     -0.931698
H      -3.349108      1.519091     -1.463355
H       1.146782     -3.808235     -0.489215
H      -0.504060     -2.363158     -1.670741
H      -1.377068     -0.332416      2.033635
H       0.175825     -1.878043      3.236721
O      -4.258921      3.658928     -0.090113
H      -4.786873      4.099854      0.582786
*
